1600 3120
1 2 5
1 41 3
2 3 2
2 42 2
3 4 1
3 43 4
4 5 5
4 44 4
5 6 5
5 45 4
6 7 1
6 46 3
7 8 4
7 47 1
8 9 3
8 48 5
9 10 3
9 49 1
10 11 3
10 50 4
11 12 2
11 51 1
12 13 3
12 52 1
13 14 3
13 53 5
14 15 2
14 54 4
15 16 2
15 55 4
16 17 5
16 56 4
17 18 5
17 57 1
18 19 2
18 58 3
19 20 4
19 59 4
20 21 4
20 60 2
21 22 2
21 61 4
22 23 3
22 62 5
23 24 2
23 63 2
24 25 2
24 64 4
25 26 4
25 65 4
26 27 5
26 66 5
27 28 5
27 67 5
28 29 3
28 68 2
29 30 2
29 69 2
30 31 1
30 70 5
31 32 2
31 71 4
32 33 3
32 72 1
33 34 4
33 73 1
34 35 3
34 74 2
35 36 2
35 75 5
36 37 5
36 76 2
37 38 1
37 77 5
38 39 5
38 78 2
39 40 4
39 79 2
40 80 3
41 42 4
41 81 1
42 43 2
42 82 5
43 44 2
43 83 5
44 45 2
44 84 2
45 46 2
45 85 1
46 47 3
46 86 3
47 48 1
47 87 1
48 49 1
48 88 5
49 50 4
49 89 3
50 51 2
50 90 2
51 52 3
51 91 5
52 53 1
52 92 5
53 54 1
53 93 4
54 55 1
54 94 4
55 56 5
55 95 3
56 57 5
56 96 2
57 58 2
57 97 4
58 59 4
58 98 3
59 60 2
59 99 5
60 61 5
60 100 1
61 62 4
61 101 2
62 63 4
62 102 1
63 64 4
63 103 3
64 65 5
64 104 4
65 66 2
65 105 2
66 67 2
66 106 5
67 68 2
67 107 1
68 69 2
68 108 5
69 70 2
69 109 4
70 71 2
70 110 1
71 72 3
71 111 1
72 73 2
72 112 1
73 74 5
73 113 4
74 75 5
74 114 1
75 76 2
75 115 1
76 77 4
76 116 4
77 78 1
77 117 3
78 79 4
78 118 5
79 80 4
79 119 2
80 120 1
81 82 4
81 121 1
82 83 3
82 122 5
83 84 5
83 123 1
84 85 3
84 124 3
85 86 2
85 125 2
86 87 3
86 126 2
87 88 4
87 127 1
88 89 1
88 128 3
89 90 4
89 129 4
90 91 1
90 130 4
91 92 5
91 131 1
92 93 2
92 132 4
93 94 5
93 133 5
94 95 2
94 134 3
95 96 2
95 135 4
96 97 2
96 136 1
97 98 4
97 137 5
98 99 2
98 138 1
99 100 3
99 139 2
100 101 3
100 140 5
101 102 4
101 141 2
102 103 3
102 142 1
103 104 4
103 143 5
104 105 1
104 144 5
105 106 5
105 145 1
106 107 3
106 146 5
107 108 5
107 147 3
108 109 2
108 148 3
109 110 2
109 149 2
110 111 1
110 150 4
111 112 5
111 151 5
112 113 5
112 152 3
113 114 3
113 153 5
114 115 4
114 154 4
115 116 1
115 155 2
116 117 5
116 156 1
117 118 5
117 157 3
118 119 4
118 158 1
119 120 3
119 159 3
120 160 1
121 122 5
121 161 1
122 123 1
122 162 5
123 124 5
123 163 5
124 125 4
124 164 4
125 126 5
125 165 5
126 127 3
126 166 2
127 128 1
127 167 5
128 129 4
128 168 5
129 130 5
129 169 5
130 131 3
130 170 1
131 132 2
131 171 4
132 133 2
132 172 4
133 134 4
133 173 3
134 135 1
134 174 1
135 136 3
135 175 5
136 137 1
136 176 2
137 138 5
137 177 1
138 139 4
138 178 3
139 140 2
139 179 2
140 141 2
140 180 4
141 142 2
141 181 2
142 143 4
142 182 3
143 144 4
143 183 5
144 145 3
144 184 2
145 146 3
145 185 3
146 147 1
146 186 4
147 148 2
147 187 2
148 149 3
148 188 1
149 150 4
149 189 4
150 151 4
150 190 2
151 152 4
151 191 1
152 153 3
152 192 4
153 154 4
153 193 5
154 155 2
154 194 3
155 156 2
155 195 3
156 157 3
156 196 5
157 158 2
157 197 2
158 159 4
158 198 1
159 160 4
159 199 5
160 200 4
161 162 4
161 201 4
162 163 2
162 202 5
163 164 1
163 203 1
164 165 3
164 204 4
165 166 4
165 205 3
166 167 2
166 206 2
167 168 5
167 207 5
168 169 2
168 208 4
169 170 3
169 209 3
170 171 2
170 210 3
171 172 4
171 211 5
172 173 4
172 212 3
173 174 1
173 213 5
174 175 3
174 214 2
175 176 4
175 215 3
176 177 2
176 216 2
177 178 1
177 217 4
178 179 4
178 218 4
179 180 5
179 219 4
180 181 2
180 220 5
181 182 3
181 221 5
182 183 1
182 222 4
183 184 4
183 223 5
184 185 4
184 224 3
185 186 5
185 225 2
186 187 4
186 226 5
187 188 3
187 227 2
188 189 1
188 228 4
189 190 2
189 229 3
190 191 5
190 230 4
191 192 5
191 231 1
192 193 4
192 232 2
193 194 5
193 233 4
194 195 1
194 234 3
195 196 3
195 235 4
196 197 3
196 236 2
197 198 5
197 237 1
198 199 5
198 238 1
199 200 4
199 239 1
200 240 5
201 202 5
201 241 3
202 203 4
202 242 1
203 204 5
203 243 4
204 205 5
204 244 4
205 206 4
205 245 3
206 207 1
206 246 3
207 208 5
207 247 1
208 209 2
208 248 5
209 210 1
209 249 5
210 211 4
210 250 3
211 212 2
211 251 3
212 213 1
212 252 4
213 214 3
213 253 3
214 215 2
214 254 5
215 216 2
215 255 5
216 217 3
216 256 2
217 218 5
217 257 2
218 219 5
218 258 2
219 220 3
219 259 2
220 221 1
220 260 5
221 222 5
221 261 3
222 223 3
222 262 1
223 224 3
223 263 5
224 225 3
224 264 1
225 226 4
225 265 3
226 227 4
226 266 5
227 228 4
227 267 3
228 229 2
228 268 3
229 230 3
229 269 1
230 231 1
230 270 2
231 232 4
231 271 2
232 233 2
232 272 2
233 234 5
233 273 3
234 235 1
234 274 3
235 236 1
235 275 5
236 237 2
236 276 3
237 238 4
237 277 1
238 239 2
238 278 4
239 240 4
239 279 3
240 280 2
241 242 3
241 281 5
242 243 1
242 282 1
243 244 1
243 283 2
244 245 1
244 284 5
245 246 5
245 285 4
246 247 1
246 286 3
247 248 3
247 287 5
248 249 4
248 288 2
249 250 3
249 289 4
250 251 3
250 290 2
251 252 3
251 291 1
252 253 3
252 292 4
253 254 3
253 293 4
254 255 3
254 294 1
255 256 5
255 295 5
256 257 5
256 296 4
257 258 1
257 297 3
258 259 3
258 298 3
259 260 2
259 299 2
260 261 5
260 300 2
261 262 5
261 301 3
262 263 2
262 302 2
263 264 5
263 303 4
264 265 5
264 304 5
265 266 3
265 305 5
266 267 3
266 306 4
267 268 1
267 307 5
268 269 4
268 308 4
269 270 4
269 309 5
270 271 2
270 310 5
271 272 5
271 311 2
272 273 3
272 312 2
273 274 3
273 313 2
274 275 5
274 314 3
275 276 3
275 315 3
276 277 4
276 316 3
277 278 3
277 317 1
278 279 1
278 318 2
279 280 5
279 319 1
280 320 3
281 282 3
281 321 1
282 283 2
282 322 4
283 284 1
283 323 5
284 285 1
284 324 4
285 286 3
285 325 3
286 287 1
286 326 3
287 288 4
287 327 2
288 289 2
288 328 5
289 290 5
289 329 5
290 291 2
290 330 3
291 292 3
291 331 5
292 293 5
292 332 2
293 294 1
293 333 3
294 295 4
294 334 3
295 296 5
295 335 1
296 297 1
296 336 1
297 298 4
297 337 5
298 299 5
298 338 1
299 300 5
299 339 1
300 301 5
300 340 5
301 302 4
301 341 4
302 303 1
302 342 2
303 304 5
303 343 3
304 305 3
304 344 3
305 306 4
305 345 4
306 307 3
306 346 2
307 308 3
307 347 4
308 309 5
308 348 1
309 310 2
309 349 3
310 311 4
310 350 4
311 312 5
311 351 5
312 313 1
312 352 3
313 314 3
313 353 1
314 315 5
314 354 5
315 316 3
315 355 1
316 317 2
316 356 5
317 318 4
317 357 5
318 319 5
318 358 5
319 320 1
319 359 3
320 360 4
321 322 3
321 361 5
322 323 2
322 362 4
323 324 2
323 363 2
324 325 3
324 364 1
325 326 5
325 365 1
326 327 2
326 366 3
327 328 2
327 367 4
328 329 4
328 368 2
329 330 3
329 369 2
330 331 2
330 370 5
331 332 4
331 371 3
332 333 5
332 372 2
333 334 1
333 373 1
334 335 3
334 374 4
335 336 5
335 375 4
336 337 2
336 376 3
337 338 4
337 377 3
338 339 4
338 378 4
339 340 3
339 379 2
340 341 3
340 380 3
341 342 1
341 381 2
342 343 2
342 382 1
343 344 5
343 383 3
344 345 4
344 384 5
345 346 1
345 385 3
346 347 5
346 386 2
347 348 2
347 387 1
348 349 2
348 388 2
349 350 1
349 389 2
350 351 3
350 390 5
351 352 1
351 391 2
352 353 2
352 392 4
353 354 1
353 393 1
354 355 1
354 394 1
355 356 1
355 395 1
356 357 5
356 396 3
357 358 4
357 397 3
358 359 2
358 398 2
359 360 1
359 399 5
360 400 4
361 362 4
361 401 5
362 363 1
362 402 2
363 364 3
363 403 5
364 365 5
364 404 4
365 366 3
365 405 2
366 367 4
366 406 2
367 368 5
367 407 1
368 369 5
368 408 5
369 370 4
369 409 2
370 371 3
370 410 1
371 372 3
371 411 5
372 373 5
372 412 5
373 374 1
373 413 4
374 375 3
374 414 4
375 376 2
375 415 1
376 377 3
376 416 1
377 378 1
377 417 3
378 379 5
378 418 1
379 380 1
379 419 2
380 381 4
380 420 5
381 382 1
381 421 4
382 383 3
382 422 3
383 384 1
383 423 2
384 385 4
384 424 2
385 386 1
385 425 4
386 387 4
386 426 1
387 388 3
387 427 2
388 389 3
388 428 5
389 390 2
389 429 5
390 391 5
390 430 2
391 392 5
391 431 2
392 393 5
392 432 5
393 394 1
393 433 4
394 395 5
394 434 5
395 396 3
395 435 3
396 397 1
396 436 1
397 398 5
397 437 2
398 399 1
398 438 4
399 400 2
399 439 5
400 440 4
401 402 3
401 441 5
402 403 3
402 442 4
403 404 3
403 443 2
404 405 3
404 444 2
405 406 4
405 445 3
406 407 3
406 446 2
407 408 2
407 447 3
408 409 3
408 448 1
409 410 5
409 449 4
410 411 2
410 450 3
411 412 1
411 451 5
412 413 4
412 452 3
413 414 1
413 453 2
414 415 1
414 454 4
415 416 1
415 455 4
416 417 2
416 456 5
417 418 1
417 457 5
418 419 2
418 458 5
419 420 5
419 459 2
420 421 3
420 460 4
421 422 4
421 461 2
422 423 2
422 462 4
423 424 4
423 463 2
424 425 2
424 464 1
425 426 5
425 465 5
426 427 4
426 466 1
427 428 3
427 467 3
428 429 4
428 468 5
429 430 2
429 469 5
430 431 5
430 470 2
431 432 5
431 471 4
432 433 4
432 472 2
433 434 2
433 473 5
434 435 3
434 474 5
435 436 1
435 475 2
436 437 1
436 476 1
437 438 2
437 477 2
438 439 1
438 478 1
439 440 1
439 479 1
440 480 4
441 442 5
441 481 3
442 443 4
442 482 3
443 444 1
443 483 3
444 445 3
444 484 4
445 446 2
445 485 5
446 447 3
446 486 4
447 448 2
447 487 2
448 449 4
448 488 5
449 450 4
449 489 5
450 451 4
450 490 4
451 452 3
451 491 5
452 453 1
452 492 2
453 454 2
453 493 3
454 455 3
454 494 4
455 456 2
455 495 3
456 457 5
456 496 5
457 458 4
457 497 1
458 459 2
458 498 4
459 460 5
459 499 4
460 461 1
460 500 5
461 462 2
461 501 2
462 463 2
462 502 3
463 464 2
463 503 3
464 465 1
464 504 4
465 466 5
465 505 1
466 467 5
466 506 4
467 468 2
467 507 3
468 469 5
468 508 2
469 470 5
469 509 4
470 471 1
470 510 4
471 472 4
471 511 2
472 473 3
472 512 2
473 474 3
473 513 3
474 475 1
474 514 3
475 476 3
475 515 1
476 477 3
476 516 3
477 478 3
477 517 2
478 479 4
478 518 3
479 480 4
479 519 2
480 520 3
481 482 2
481 521 4
482 483 5
482 522 2
483 484 5
483 523 2
484 485 1
484 524 4
485 486 4
485 525 2
486 487 5
486 526 4
487 488 5
487 527 1
488 489 4
488 528 1
489 490 3
489 529 4
490 491 1
490 530 1
491 492 5
491 531 1
492 493 3
492 532 5
493 494 5
493 533 1
494 495 4
494 534 1
495 496 2
495 535 1
496 497 4
496 536 3
497 498 1
497 537 4
498 499 4
498 538 3
499 500 1
499 539 3
500 501 3
500 540 5
501 502 4
501 541 3
502 503 1
502 542 2
503 504 3
503 543 1
504 505 2
504 544 1
505 506 1
505 545 4
506 507 2
506 546 4
507 508 3
507 547 5
508 509 4
508 548 2
509 510 1
509 549 2
510 511 2
510 550 2
511 512 2
511 551 1
512 513 4
512 552 5
513 514 3
513 553 2
514 515 2
514 554 4
515 516 4
515 555 3
516 517 2
516 556 2
517 518 2
517 557 1
518 519 2
518 558 4
519 520 4
519 559 2
520 560 4
521 522 5
521 561 4
522 523 1
522 562 1
523 524 5
523 563 2
524 525 1
524 564 2
525 526 4
525 565 3
526 527 1
526 566 2
527 528 4
527 567 2
528 529 1
528 568 1
529 530 2
529 569 4
530 531 5
530 570 3
531 532 1
531 571 1
532 533 2
532 572 1
533 534 4
533 573 1
534 535 3
534 574 2
535 536 4
535 575 3
536 537 5
536 576 5
537 538 4
537 577 3
538 539 2
538 578 1
539 540 1
539 579 3
540 541 2
540 580 5
541 542 3
541 581 3
542 543 3
542 582 4
543 544 2
543 583 2
544 545 1
544 584 5
545 546 3
545 585 5
546 547 5
546 586 4
547 548 3
547 587 3
548 549 4
548 588 5
549 550 4
549 589 1
550 551 4
550 590 1
551 552 3
551 591 2
552 553 4
552 592 3
553 554 5
553 593 1
554 555 4
554 594 5
555 556 5
555 595 1
556 557 1
556 596 5
557 558 2
557 597 4
558 559 2
558 598 2
559 560 4
559 599 2
560 600 4
561 562 5
561 601 4
562 563 5
562 602 3
563 564 3
563 603 1
564 565 3
564 604 4
565 566 4
565 605 3
566 567 5
566 606 5
567 568 3
567 607 3
568 569 3
568 608 3
569 570 4
569 609 4
570 571 2
570 610 1
571 572 5
571 611 1
572 573 2
572 612 1
573 574 3
573 613 1
574 575 1
574 614 4
575 576 2
575 615 3
576 577 1
576 616 1
577 578 5
577 617 4
578 579 3
578 618 1
579 580 5
579 619 5
580 581 2
580 620 1
581 582 5
581 621 1
582 583 4
582 622 2
583 584 5
583 623 1
584 585 3
584 624 5
585 586 2
585 625 1
586 587 5
586 626 4
587 588 2
587 627 2
588 589 4
588 628 5
589 590 1
589 629 5
590 591 3
590 630 5
591 592 4
591 631 4
592 593 4
592 632 5
593 594 4
593 633 2
594 595 5
594 634 3
595 596 3
595 635 2
596 597 3
596 636 5
597 598 5
597 637 1
598 599 2
598 638 2
599 600 2
599 639 1
600 640 1
601 602 5
601 641 5
602 603 2
602 642 4
603 604 5
603 643 5
604 605 5
604 644 1
605 606 2
605 645 1
606 607 5
606 646 3
607 608 3
607 647 3
608 609 4
608 648 5
609 610 2
609 649 3
610 611 2
610 650 5
611 612 1
611 651 1
612 613 1
612 652 2
613 614 4
613 653 5
614 615 4
614 654 5
615 616 2
615 655 2
616 617 1
616 656 2
617 618 3
617 657 2
618 619 1
618 658 3
619 620 3
619 659 2
620 621 2
620 660 4
621 622 4
621 661 5
622 623 5
622 662 2
623 624 1
623 663 2
624 625 5
624 664 5
625 626 5
625 665 4
626 627 2
626 666 2
627 628 2
627 667 5
628 629 3
628 668 3
629 630 5
629 669 4
630 631 3
630 670 2
631 632 1
631 671 4
632 633 3
632 672 3
633 634 2
633 673 4
634 635 5
634 674 4
635 636 5
635 675 3
636 637 1
636 676 1
637 638 1
637 677 5
638 639 2
638 678 5
639 640 4
639 679 2
640 680 2
641 642 1
641 681 4
642 643 5
642 682 5
643 644 3
643 683 1
644 645 2
644 684 5
645 646 2
645 685 3
646 647 3
646 686 3
647 648 4
647 687 1
648 649 2
648 688 5
649 650 5
649 689 2
650 651 5
650 690 2
651 652 1
651 691 3
652 653 2
652 692 2
653 654 3
653 693 4
654 655 2
654 694 3
655 656 1
655 695 2
656 657 3
656 696 5
657 658 2
657 697 5
658 659 4
658 698 2
659 660 4
659 699 4
660 661 3
660 700 4
661 662 5
661 701 1
662 663 2
662 702 4
663 664 1
663 703 1
664 665 5
664 704 4
665 666 2
665 705 4
666 667 1
666 706 2
667 668 3
667 707 1
668 669 3
668 708 4
669 670 3
669 709 5
670 671 4
670 710 4
671 672 5
671 711 1
672 673 5
672 712 4
673 674 3
673 713 2
674 675 4
674 714 1
675 676 2
675 715 2
676 677 5
676 716 5
677 678 3
677 717 2
678 679 1
678 718 3
679 680 5
679 719 1
680 720 1
681 682 2
681 721 2
682 683 4
682 722 1
683 684 5
683 723 3
684 685 5
684 724 2
685 686 1
685 725 4
686 687 3
686 726 2
687 688 4
687 727 3
688 689 4
688 728 5
689 690 1
689 729 5
690 691 3
690 730 2
691 692 2
691 731 4
692 693 4
692 732 2
693 694 5
693 733 4
694 695 1
694 734 3
695 696 3
695 735 1
696 697 5
696 736 1
697 698 2
697 737 5
698 699 4
698 738 4
699 700 2
699 739 1
700 701 1
700 740 2
701 702 4
701 741 4
702 703 2
702 742 4
703 704 5
703 743 1
704 705 3
704 744 4
705 706 1
705 745 1
706 707 4
706 746 5
707 708 4
707 747 3
708 709 5
708 748 4
709 710 3
709 749 3
710 711 4
710 750 2
711 712 2
711 751 3
712 713 1
712 752 3
713 714 1
713 753 2
714 715 1
714 754 2
715 716 5
715 755 1
716 717 1
716 756 1
717 718 5
717 757 4
718 719 3
718 758 5
719 720 5
719 759 2
720 760 5
721 722 4
721 761 5
722 723 5
722 762 3
723 724 1
723 763 2
724 725 3
724 764 3
725 726 2
725 765 5
726 727 2
726 766 2
727 728 2
727 767 2
728 729 4
728 768 4
729 730 3
729 769 1
730 731 1
730 770 5
731 732 5
731 771 5
732 733 1
732 772 2
733 734 2
733 773 5
734 735 4
734 774 2
735 736 1
735 775 3
736 737 1
736 776 1
737 738 5
737 777 5
738 739 2
738 778 5
739 740 4
739 779 3
740 741 2
740 780 2
741 742 2
741 781 4
742 743 5
742 782 4
743 744 2
743 783 2
744 745 5
744 784 3
745 746 2
745 785 5
746 747 4
746 786 3
747 748 1
747 787 1
748 749 4
748 788 3
749 750 4
749 789 1
750 751 4
750 790 4
751 752 2
751 791 4
752 753 5
752 792 1
753 754 3
753 793 1
754 755 3
754 794 3
755 756 5
755 795 3
756 757 5
756 796 2
757 758 3
757 797 1
758 759 3
758 798 1
759 760 1
759 799 1
760 800 4
761 762 5
761 801 2
762 763 5
762 802 2
763 764 5
763 803 5
764 765 1
764 804 4
765 766 5
765 805 4
766 767 1
766 806 1
767 768 2
767 807 3
768 769 2
768 808 1
769 770 2
769 809 1
770 771 2
770 810 3
771 772 3
771 811 1
772 773 5
772 812 3
773 774 3
773 813 4
774 775 2
774 814 3
775 776 3
775 815 4
776 777 3
776 816 4
777 778 2
777 817 5
778 779 3
778 818 5
779 780 4
779 819 1
780 781 1
780 820 1
781 782 1
781 821 2
782 783 4
782 822 2
783 784 4
783 823 2
784 785 1
784 824 2
785 786 4
785 825 2
786 787 5
786 826 5
787 788 4
787 827 3
788 789 3
788 828 4
789 790 1
789 829 4
790 791 4
790 830 4
791 792 1
791 831 3
792 793 5
792 832 2
793 794 3
793 833 3
794 795 5
794 834 5
795 796 3
795 835 4
796 797 3
796 836 4
797 798 4
797 837 1
798 799 5
798 838 2
799 800 1
799 839 1
800 840 1
801 802 5
801 841 3
802 803 5
802 842 2
803 804 2
803 843 2
804 805 4
804 844 4
805 806 3
805 845 4
806 807 4
806 846 3
807 808 1
807 847 5
808 809 1
808 848 4
809 810 1
809 849 5
810 811 2
810 850 2
811 812 3
811 851 5
812 813 2
812 852 3
813 814 5
813 853 4
814 815 5
814 854 4
815 816 2
815 855 3
816 817 2
816 856 3
817 818 1
817 857 3
818 819 1
818 858 1
819 820 3
819 859 3
820 821 2
820 860 4
821 822 3
821 861 4
822 823 4
822 862 1
823 824 4
823 863 5
824 825 5
824 864 3
825 826 3
825 865 4
826 827 5
826 866 2
827 828 1
827 867 3
828 829 1
828 868 1
829 830 3
829 869 1
830 831 1
830 870 4
831 832 1
831 871 4
832 833 5
832 872 1
833 834 5
833 873 2
834 835 4
834 874 5
835 836 2
835 875 5
836 837 4
836 876 3
837 838 5
837 877 2
838 839 3
838 878 4
839 840 2
839 879 3
840 880 2
841 842 5
841 881 4
842 843 2
842 882 4
843 844 4
843 883 2
844 845 1
844 884 2
845 846 4
845 885 5
846 847 4
846 886 2
847 848 2
847 887 5
848 849 1
848 888 1
849 850 3
849 889 2
850 851 3
850 890 4
851 852 2
851 891 2
852 853 3
852 892 4
853 854 4
853 893 4
854 855 2
854 894 5
855 856 1
855 895 5
856 857 1
856 896 2
857 858 5
857 897 3
858 859 1
858 898 5
859 860 3
859 899 2
860 861 5
860 900 4
861 862 2
861 901 3
862 863 2
862 902 5
863 864 4
863 903 4
864 865 1
864 904 1
865 866 3
865 905 1
866 867 1
866 906 2
867 868 4
867 907 5
868 869 4
868 908 4
869 870 3
869 909 2
870 871 5
870 910 3
871 872 1
871 911 3
872 873 3
872 912 5
873 874 1
873 913 4
874 875 1
874 914 5
875 876 1
875 915 5
876 877 1
876 916 4
877 878 2
877 917 1
878 879 5
878 918 4
879 880 4
879 919 4
880 920 1
881 882 5
881 921 5
882 883 3
882 922 2
883 884 2
883 923 3
884 885 5
884 924 3
885 886 5
885 925 1
886 887 1
886 926 4
887 888 4
887 927 2
888 889 1
888 928 4
889 890 3
889 929 2
890 891 1
890 930 5
891 892 3
891 931 4
892 893 4
892 932 4
893 894 4
893 933 3
894 895 3
894 934 1
895 896 4
895 935 4
896 897 3
896 936 4
897 898 2
897 937 2
898 899 2
898 938 4
899 900 1
899 939 2
900 901 5
900 940 2
901 902 3
901 941 2
902 903 5
902 942 2
903 904 3
903 943 2
904 905 5
904 944 5
905 906 5
905 945 4
906 907 1
906 946 5
907 908 3
907 947 1
908 909 3
908 948 5
909 910 5
909 949 5
910 911 4
910 950 3
911 912 1
911 951 1
912 913 2
912 952 4
913 914 3
913 953 3
914 915 5
914 954 4
915 916 3
915 955 5
916 917 2
916 956 5
917 918 2
917 957 1
918 919 5
918 958 5
919 920 5
919 959 3
920 960 5
921 922 1
921 961 3
922 923 1
922 962 3
923 924 2
923 963 3
924 925 5
924 964 2
925 926 3
925 965 4
926 927 1
926 966 1
927 928 5
927 967 4
928 929 2
928 968 1
929 930 5
929 969 5
930 931 1
930 970 1
931 932 4
931 971 1
932 933 1
932 972 2
933 934 4
933 973 3
934 935 5
934 974 5
935 936 2
935 975 5
936 937 3
936 976 2
937 938 5
937 977 1
938 939 2
938 978 5
939 940 3
939 979 4
940 941 1
940 980 5
941 942 3
941 981 4
942 943 1
942 982 1
943 944 1
943 983 1
944 945 5
944 984 3
945 946 5
945 985 1
946 947 1
946 986 4
947 948 3
947 987 1
948 949 3
948 988 1
949 950 5
949 989 5
950 951 3
950 990 1
951 952 1
951 991 5
952 953 2
952 992 2
953 954 5
953 993 1
954 955 1
954 994 2
955 956 1
955 995 1
956 957 4
956 996 5
957 958 3
957 997 4
958 959 1
958 998 5
959 960 4
959 999 2
960 1000 5
961 962 3
961 1001 3
962 963 2
962 1002 1
963 964 2
963 1003 2
964 965 4
964 1004 4
965 966 1
965 1005 4
966 967 5
966 1006 3
967 968 5
967 1007 2
968 969 4
968 1008 2
969 970 5
969 1009 3
970 971 4
970 1010 4
971 972 1
971 1011 4
972 973 4
972 1012 1
973 974 2
973 1013 4
974 975 1
974 1014 3
975 976 1
975 1015 2
976 977 2
976 1016 1
977 978 1
977 1017 3
978 979 3
978 1018 2
979 980 1
979 1019 2
980 981 3
980 1020 1
981 982 4
981 1021 4
982 983 5
982 1022 1
983 984 4
983 1023 3
984 985 1
984 1024 1
985 986 3
985 1025 2
986 987 2
986 1026 2
987 988 4
987 1027 1
988 989 2
988 1028 5
989 990 5
989 1029 3
990 991 2
990 1030 1
991 992 2
991 1031 4
992 993 2
992 1032 2
993 994 3
993 1033 3
994 995 3
994 1034 2
995 996 3
995 1035 4
996 997 5
996 1036 4
997 998 3
997 1037 5
998 999 1
998 1038 2
999 1000 3
999 1039 3
1000 1040 2
1001 1002 4
1001 1041 5
1002 1003 1
1002 1042 2
1003 1004 2
1003 1043 4
1004 1005 3
1004 1044 2
1005 1006 1
1005 1045 4
1006 1007 5
1006 1046 5
1007 1008 2
1007 1047 4
1008 1009 5
1008 1048 4
1009 1010 2
1009 1049 5
1010 1011 1
1010 1050 3
1011 1012 4
1011 1051 1
1012 1013 3
1012 1052 4
1013 1014 4
1013 1053 1
1014 1015 5
1014 1054 5
1015 1016 5
1015 1055 2
1016 1017 5
1016 1056 1
1017 1018 3
1017 1057 3
1018 1019 3
1018 1058 3
1019 1020 1
1019 1059 5
1020 1021 3
1020 1060 4
1021 1022 4
1021 1061 3
1022 1023 4
1022 1062 4
1023 1024 3
1023 1063 2
1024 1025 1
1024 1064 5
1025 1026 5
1025 1065 4
1026 1027 4
1026 1066 5
1027 1028 2
1027 1067 3
1028 1029 2
1028 1068 5
1029 1030 5
1029 1069 4
1030 1031 3
1030 1070 1
1031 1032 3
1031 1071 2
1032 1033 5
1032 1072 4
1033 1034 3
1033 1073 1
1034 1035 3
1034 1074 2
1035 1036 5
1035 1075 3
1036 1037 3
1036 1076 4
1037 1038 5
1037 1077 5
1038 1039 1
1038 1078 4
1039 1040 2
1039 1079 2
1040 1080 2
1041 1042 4
1041 1081 1
1042 1043 3
1042 1082 5
1043 1044 2
1043 1083 5
1044 1045 3
1044 1084 1
1045 1046 2
1045 1085 5
1046 1047 3
1046 1086 5
1047 1048 2
1047 1087 3
1048 1049 1
1048 1088 4
1049 1050 4
1049 1089 5
1050 1051 4
1050 1090 1
1051 1052 3
1051 1091 3
1052 1053 3
1052 1092 4
1053 1054 2
1053 1093 2
1054 1055 3
1054 1094 4
1055 1056 5
1055 1095 2
1056 1057 2
1056 1096 1
1057 1058 2
1057 1097 2
1058 1059 5
1058 1098 3
1059 1060 2
1059 1099 5
1060 1061 2
1060 1100 2
1061 1062 2
1061 1101 2
1062 1063 4
1062 1102 5
1063 1064 2
1063 1103 4
1064 1065 5
1064 1104 3
1065 1066 4
1065 1105 5
1066 1067 4
1066 1106 3
1067 1068 3
1067 1107 5
1068 1069 3
1068 1108 3
1069 1070 4
1069 1109 3
1070 1071 3
1070 1110 3
1071 1072 1
1071 1111 4
1072 1073 1
1072 1112 1
1073 1074 3
1073 1113 2
1074 1075 2
1074 1114 1
1075 1076 3
1075 1115 1
1076 1077 5
1076 1116 4
1077 1078 5
1077 1117 5
1078 1079 2
1078 1118 1
1079 1080 4
1079 1119 1
1080 1120 2
1081 1082 5
1081 1121 2
1082 1083 1
1082 1122 3
1083 1084 3
1083 1123 5
1084 1085 2
1084 1124 4
1085 1086 3
1085 1125 1
1086 1087 2
1086 1126 2
1087 1088 3
1087 1127 1
1088 1089 5
1088 1128 2
1089 1090 4
1089 1129 4
1090 1091 3
1090 1130 1
1091 1092 4
1091 1131 5
1092 1093 3
1092 1132 1
1093 1094 1
1093 1133 5
1094 1095 3
1094 1134 2
1095 1096 2
1095 1135 5
1096 1097 5
1096 1136 4
1097 1098 3
1097 1137 5
1098 1099 2
1098 1138 4
1099 1100 1
1099 1139 3
1100 1101 5
1100 1140 2
1101 1102 4
1101 1141 1
1102 1103 2
1102 1142 3
1103 1104 1
1103 1143 1
1104 1105 2
1104 1144 1
1105 1106 3
1105 1145 5
1106 1107 3
1106 1146 2
1107 1108 2
1107 1147 1
1108 1109 4
1108 1148 5
1109 1110 2
1109 1149 5
1110 1111 1
1110 1150 4
1111 1112 4
1111 1151 5
1112 1113 1
1112 1152 2
1113 1114 2
1113 1153 4
1114 1115 5
1114 1154 1
1115 1116 1
1115 1155 3
1116 1117 4
1116 1156 4
1117 1118 4
1117 1157 3
1118 1119 4
1118 1158 2
1119 1120 2
1119 1159 1
1120 1160 5
1121 1122 1
1121 1161 5
1122 1123 5
1122 1162 3
1123 1124 4
1123 1163 4
1124 1125 2
1124 1164 3
1125 1126 1
1125 1165 3
1126 1127 5
1126 1166 5
1127 1128 3
1127 1167 4
1128 1129 4
1128 1168 2
1129 1130 2
1129 1169 3
1130 1131 3
1130 1170 1
1131 1132 1
1131 1171 2
1132 1133 1
1132 1172 1
1133 1134 3
1133 1173 1
1134 1135 2
1134 1174 4
1135 1136 3
1135 1175 5
1136 1137 4
1136 1176 4
1137 1138 2
1137 1177 2
1138 1139 2
1138 1178 3
1139 1140 1
1139 1179 2
1140 1141 4
1140 1180 1
1141 1142 1
1141 1181 5
1142 1143 2
1142 1182 5
1143 1144 1
1143 1183 1
1144 1145 5
1144 1184 1
1145 1146 4
1145 1185 2
1146 1147 1
1146 1186 2
1147 1148 4
1147 1187 4
1148 1149 4
1148 1188 3
1149 1150 3
1149 1189 1
1150 1151 4
1150 1190 4
1151 1152 5
1151 1191 3
1152 1153 4
1152 1192 5
1153 1154 2
1153 1193 3
1154 1155 4
1154 1194 1
1155 1156 5
1155 1195 3
1156 1157 3
1156 1196 4
1157 1158 2
1157 1197 3
1158 1159 4
1158 1198 2
1159 1160 2
1159 1199 5
1160 1200 3
1161 1162 1
1161 1201 3
1162 1163 1
1162 1202 2
1163 1164 1
1163 1203 4
1164 1165 3
1164 1204 3
1165 1166 2
1165 1205 4
1166 1167 1
1166 1206 4
1167 1168 4
1167 1207 2
1168 1169 2
1168 1208 4
1169 1170 4
1169 1209 5
1170 1171 4
1170 1210 4
1171 1172 3
1171 1211 5
1172 1173 5
1172 1212 1
1173 1174 1
1173 1213 5
1174 1175 3
1174 1214 2
1175 1176 5
1175 1215 3
1176 1177 1
1176 1216 2
1177 1178 2
1177 1217 4
1178 1179 1
1178 1218 1
1179 1180 3
1179 1219 1
1180 1181 1
1180 1220 2
1181 1182 3
1181 1221 1
1182 1183 1
1182 1222 1
1183 1184 1
1183 1223 3
1184 1185 1
1184 1224 1
1185 1186 5
1185 1225 5
1186 1187 5
1186 1226 4
1187 1188 2
1187 1227 3
1188 1189 3
1188 1228 5
1189 1190 4
1189 1229 5
1190 1191 3
1190 1230 4
1191 1192 5
1191 1231 3
1192 1193 2
1192 1232 3
1193 1194 4
1193 1233 1
1194 1195 2
1194 1234 5
1195 1196 4
1195 1235 5
1196 1197 4
1196 1236 1
1197 1198 3
1197 1237 5
1198 1199 2
1198 1238 3
1199 1200 4
1199 1239 3
1200 1240 3
1201 1202 4
1201 1241 3
1202 1203 3
1202 1242 5
1203 1204 4
1203 1243 5
1204 1205 3
1204 1244 3
1205 1206 4
1205 1245 1
1206 1207 4
1206 1246 3
1207 1208 4
1207 1247 1
1208 1209 4
1208 1248 1
1209 1210 1
1209 1249 1
1210 1211 5
1210 1250 5
1211 1212 5
1211 1251 3
1212 1213 5
1212 1252 1
1213 1214 4
1213 1253 2
1214 1215 3
1214 1254 5
1215 1216 1
1215 1255 3
1216 1217 3
1216 1256 2
1217 1218 1
1217 1257 3
1218 1219 1
1218 1258 3
1219 1220 4
1219 1259 2
1220 1221 5
1220 1260 2
1221 1222 3
1221 1261 2
1222 1223 4
1222 1262 5
1223 1224 5
1223 1263 1
1224 1225 4
1224 1264 2
1225 1226 5
1225 1265 4
1226 1227 4
1226 1266 4
1227 1228 3
1227 1267 1
1228 1229 4
1228 1268 2
1229 1230 3
1229 1269 2
1230 1231 4
1230 1270 5
1231 1232 2
1231 1271 3
1232 1233 4
1232 1272 3
1233 1234 2
1233 1273 4
1234 1235 3
1234 1274 5
1235 1236 3
1235 1275 4
1236 1237 5
1236 1276 1
1237 1238 3
1237 1277 4
1238 1239 3
1238 1278 5
1239 1240 5
1239 1279 4
1240 1280 4
1241 1242 1
1241 1281 5
1242 1243 5
1242 1282 5
1243 1244 1
1243 1283 5
1244 1245 1
1244 1284 5
1245 1246 5
1245 1285 4
1246 1247 5
1246 1286 2
1247 1248 3
1247 1287 3
1248 1249 2
1248 1288 5
1249 1250 5
1249 1289 5
1250 1251 2
1250 1290 5
1251 1252 4
1251 1291 2
1252 1253 4
1252 1292 3
1253 1254 4
1253 1293 5
1254 1255 2
1254 1294 4
1255 1256 5
1255 1295 2
1256 1257 1
1256 1296 1
1257 1258 2
1257 1297 5
1258 1259 2
1258 1298 2
1259 1260 4
1259 1299 4
1260 1261 1
1260 1300 3
1261 1262 5
1261 1301 4
1262 1263 4
1262 1302 4
1263 1264 4
1263 1303 1
1264 1265 2
1264 1304 1
1265 1266 1
1265 1305 3
1266 1267 5
1266 1306 1
1267 1268 5
1267 1307 3
1268 1269 2
1268 1308 5
1269 1270 1
1269 1309 3
1270 1271 4
1270 1310 4
1271 1272 3
1271 1311 1
1272 1273 1
1272 1312 1
1273 1274 4
1273 1313 2
1274 1275 5
1274 1314 5
1275 1276 4
1275 1315 1
1276 1277 1
1276 1316 5
1277 1278 4
1277 1317 2
1278 1279 3
1278 1318 1
1279 1280 2
1279 1319 2
1280 1320 4
1281 1282 5
1281 1321 4
1282 1283 2
1282 1322 2
1283 1284 3
1283 1323 4
1284 1285 3
1284 1324 4
1285 1286 2
1285 1325 4
1286 1287 4
1286 1326 2
1287 1288 4
1287 1327 1
1288 1289 5
1288 1328 4
1289 1290 3
1289 1329 3
1290 1291 1
1290 1330 2
1291 1292 2
1291 1331 4
1292 1293 5
1292 1332 2
1293 1294 4
1293 1333 3
1294 1295 3
1294 1334 4
1295 1296 1
1295 1335 4
1296 1297 2
1296 1336 5
1297 1298 1
1297 1337 3
1298 1299 4
1298 1338 4
1299 1300 5
1299 1339 4
1300 1301 3
1300 1340 4
1301 1302 1
1301 1341 3
1302 1303 1
1302 1342 1
1303 1304 3
1303 1343 4
1304 1305 4
1304 1344 1
1305 1306 4
1305 1345 3
1306 1307 1
1306 1346 4
1307 1308 5
1307 1347 5
1308 1309 5
1308 1348 2
1309 1310 2
1309 1349 4
1310 1311 4
1310 1350 3
1311 1312 1
1311 1351 1
1312 1313 3
1312 1352 1
1313 1314 1
1313 1353 2
1314 1315 3
1314 1354 4
1315 1316 3
1315 1355 3
1316 1317 5
1316 1356 5
1317 1318 4
1317 1357 4
1318 1319 2
1318 1358 3
1319 1320 1
1319 1359 3
1320 1360 2
1321 1322 1
1321 1361 2
1322 1323 5
1322 1362 2
1323 1324 1
1323 1363 3
1324 1325 1
1324 1364 3
1325 1326 1
1325 1365 1
1326 1327 2
1326 1366 3
1327 1328 1
1327 1367 4
1328 1329 1
1328 1368 5
1329 1330 3
1329 1369 3
1330 1331 5
1330 1370 4
1331 1332 4
1331 1371 1
1332 1333 2
1332 1372 2
1333 1334 3
1333 1373 1
1334 1335 2
1334 1374 1
1335 1336 5
1335 1375 3
1336 1337 4
1336 1376 2
1337 1338 4
1337 1377 5
1338 1339 4
1338 1378 2
1339 1340 5
1339 1379 3
1340 1341 3
1340 1380 4
1341 1342 5
1341 1381 5
1342 1343 5
1342 1382 2
1343 1344 2
1343 1383 3
1344 1345 3
1344 1384 5
1345 1346 1
1345 1385 3
1346 1347 4
1346 1386 3
1347 1348 5
1347 1387 2
1348 1349 3
1348 1388 4
1349 1350 2
1349 1389 2
1350 1351 2
1350 1390 5
1351 1352 5
1351 1391 4
1352 1353 5
1352 1392 1
1353 1354 4
1353 1393 4
1354 1355 3
1354 1394 4
1355 1356 3
1355 1395 3
1356 1357 4
1356 1396 1
1357 1358 5
1357 1397 4
1358 1359 5
1358 1398 5
1359 1360 2
1359 1399 3
1360 1400 1
1361 1362 1
1361 1401 4
1362 1363 3
1362 1402 2
1363 1364 5
1363 1403 2
1364 1365 2
1364 1404 3
1365 1366 1
1365 1405 2
1366 1367 4
1366 1406 3
1367 1368 5
1367 1407 4
1368 1369 2
1368 1408 1
1369 1370 1
1369 1409 4
1370 1371 2
1370 1410 3
1371 1372 1
1371 1411 1
1372 1373 1
1372 1412 2
1373 1374 1
1373 1413 1
1374 1375 4
1374 1414 5
1375 1376 5
1375 1415 4
1376 1377 5
1376 1416 5
1377 1378 1
1377 1417 3
1378 1379 4
1378 1418 1
1379 1380 2
1379 1419 5
1380 1381 1
1380 1420 2
1381 1382 1
1381 1421 3
1382 1383 1
1382 1422 4
1383 1384 1
1383 1423 5
1384 1385 2
1384 1424 1
1385 1386 1
1385 1425 4
1386 1387 2
1386 1426 2
1387 1388 1
1387 1427 1
1388 1389 5
1388 1428 5
1389 1390 1
1389 1429 5
1390 1391 3
1390 1430 4
1391 1392 1
1391 1431 4
1392 1393 2
1392 1432 4
1393 1394 4
1393 1433 3
1394 1395 2
1394 1434 5
1395 1396 2
1395 1435 1
1396 1397 4
1396 1436 3
1397 1398 3
1397 1437 5
1398 1399 1
1398 1438 2
1399 1400 5
1399 1439 5
1400 1440 4
1401 1402 4
1401 1441 3
1402 1403 1
1402 1442 1
1403 1404 3
1403 1443 2
1404 1405 3
1404 1444 5
1405 1406 5
1405 1445 5
1406 1407 4
1406 1446 1
1407 1408 1
1407 1447 4
1408 1409 5
1408 1448 4
1409 1410 3
1409 1449 3
1410 1411 5
1410 1450 3
1411 1412 3
1411 1451 1
1412 1413 2
1412 1452 3
1413 1414 2
1413 1453 4
1414 1415 2
1414 1454 2
1415 1416 3
1415 1455 1
1416 1417 5
1416 1456 5
1417 1418 3
1417 1457 4
1418 1419 2
1418 1458 4
1419 1420 4
1419 1459 1
1420 1421 5
1420 1460 4
1421 1422 4
1421 1461 4
1422 1423 1
1422 1462 1
1423 1424 5
1423 1463 2
1424 1425 4
1424 1464 3
1425 1426 4
1425 1465 4
1426 1427 2
1426 1466 4
1427 1428 2
1427 1467 1
1428 1429 5
1428 1468 5
1429 1430 3
1429 1469 5
1430 1431 1
1430 1470 1
1431 1432 5
1431 1471 5
1432 1433 5
1432 1472 1
1433 1434 4
1433 1473 5
1434 1435 1
1434 1474 5
1435 1436 2
1435 1475 1
1436 1437 1
1436 1476 3
1437 1438 4
1437 1477 4
1438 1439 2
1438 1478 5
1439 1440 3
1439 1479 4
1440 1480 3
1441 1442 5
1441 1481 5
1442 1443 5
1442 1482 1
1443 1444 5
1443 1483 3
1444 1445 2
1444 1484 2
1445 1446 3
1445 1485 3
1446 1447 2
1446 1486 2
1447 1448 2
1447 1487 1
1448 1449 3
1448 1488 2
1449 1450 3
1449 1489 4
1450 1451 2
1450 1490 2
1451 1452 3
1451 1491 4
1452 1453 4
1452 1492 4
1453 1454 5
1453 1493 4
1454 1455 1
1454 1494 2
1455 1456 1
1455 1495 2
1456 1457 1
1456 1496 5
1457 1458 2
1457 1497 5
1458 1459 1
1458 1498 2
1459 1460 1
1459 1499 1
1460 1461 4
1460 1500 3
1461 1462 3
1461 1501 1
1462 1463 1
1462 1502 4
1463 1464 3
1463 1503 1
1464 1465 5
1464 1504 5
1465 1466 1
1465 1505 2
1466 1467 4
1466 1506 2
1467 1468 2
1467 1507 3
1468 1469 2
1468 1508 2
1469 1470 3
1469 1509 5
1470 1471 1
1470 1510 3
1471 1472 2
1471 1511 4
1472 1473 3
1472 1512 5
1473 1474 2
1473 1513 3
1474 1475 5
1474 1514 1
1475 1476 2
1475 1515 2
1476 1477 2
1476 1516 1
1477 1478 4
1477 1517 5
1478 1479 5
1478 1518 1
1479 1480 1
1479 1519 3
1480 1520 5
1481 1482 3
1481 1521 4
1482 1483 4
1482 1522 1
1483 1484 5
1483 1523 4
1484 1485 2
1484 1524 4
1485 1486 5
1485 1525 1
1486 1487 3
1486 1526 1
1487 1488 2
1487 1527 3
1488 1489 2
1488 1528 4
1489 1490 1
1489 1529 2
1490 1491 3
1490 1530 2
1491 1492 3
1491 1531 3
1492 1493 2
1492 1532 5
1493 1494 5
1493 1533 3
1494 1495 2
1494 1534 2
1495 1496 5
1495 1535 5
1496 1497 3
1496 1536 2
1497 1498 3
1497 1537 5
1498 1499 1
1498 1538 3
1499 1500 1
1499 1539 2
1500 1501 3
1500 1540 3
1501 1502 4
1501 1541 3
1502 1503 2
1502 1542 3
1503 1504 1
1503 1543 4
1504 1505 4
1504 1544 5
1505 1506 1
1505 1545 5
1506 1507 5
1506 1546 3
1507 1508 5
1507 1547 4
1508 1509 2
1508 1548 1
1509 1510 3
1509 1549 3
1510 1511 3
1510 1550 2
1511 1512 2
1511 1551 1
1512 1513 5
1512 1552 2
1513 1514 1
1513 1553 4
1514 1515 5
1514 1554 4
1515 1516 4
1515 1555 3
1516 1517 5
1516 1556 5
1517 1518 2
1517 1557 1
1518 1519 5
1518 1558 1
1519 1520 2
1519 1559 1
1520 1560 2
1521 1522 1
1521 1561 2
1522 1523 1
1522 1562 2
1523 1524 2
1523 1563 1
1524 1525 2
1524 1564 4
1525 1526 3
1525 1565 1
1526 1527 3
1526 1566 5
1527 1528 2
1527 1567 2
1528 1529 5
1528 1568 3
1529 1530 4
1529 1569 4
1530 1531 2
1530 1570 1
1531 1532 1
1531 1571 5
1532 1533 3
1532 1572 2
1533 1534 1
1533 1573 5
1534 1535 4
1534 1574 4
1535 1536 4
1535 1575 4
1536 1537 5
1536 1576 5
1537 1538 5
1537 1577 4
1538 1539 3
1538 1578 5
1539 1540 3
1539 1579 2
1540 1541 5
1540 1580 5
1541 1542 3
1541 1581 1
1542 1543 5
1542 1582 2
1543 1544 5
1543 1583 5
1544 1545 2
1544 1584 4
1545 1546 1
1545 1585 2
1546 1547 2
1546 1586 3
1547 1548 1
1547 1587 1
1548 1549 2
1548 1588 2
1549 1550 3
1549 1589 4
1550 1551 2
1550 1590 3
1551 1552 4
1551 1591 1
1552 1553 2
1552 1592 4
1553 1554 4
1553 1593 1
1554 1555 3
1554 1594 1
1555 1556 5
1555 1595 3
1556 1557 2
1556 1596 4
1557 1558 4
1557 1597 2
1558 1559 1
1558 1598 5
1559 1560 3
1559 1599 2
1560 1600 5
1561 1562 2
1562 1563 2
1563 1564 1
1564 1565 4
1565 1566 4
1566 1567 3
1567 1568 2
1568 1569 1
1569 1570 2
1570 1571 5
1571 1572 5
1572 1573 3
1573 1574 2
1574 1575 1
1575 1576 2
1576 1577 5
1577 1578 2
1578 1579 3
1579 1580 1
1580 1581 5
1581 1582 2
1582 1583 1
1583 1584 1
1584 1585 4
1585 1586 4
1586 1587 1
1587 1588 3
1588 1589 1
1589 1590 4
1590 1591 5
1591 1592 5
1592 1593 2
1593 1594 5
1594 1595 5
1595 1596 4
1596 1597 2
1597 1598 1
1598 1599 3
1599 1600 1
